c uprop, v00.0, 
c reading from data/prog844.c.cnf
c done reading: 0.002964
p cnf 122 439
-74 -91 0
74 91 0
74 -96 0
-74 96 0
-80 91 0
-80 -82 0
80 82 -91 0
82 -86 -91 0
-82 -86 91 0
82 86 91 0
-82 86 -91 0
80 -90 0
-90 -93 0
-80 90 93 0
-80 93 -94 0
80 -93 -94 0
80 93 94 0
-80 -93 94 0
90 -95 0
-95 -98 0
-90 95 98 0
-90 98 -100 0
90 -98 -100 0
90 98 100 0
-90 -98 100 0
-76 95 0
-76 -78 0
76 78 -95 0
-72 78 -95 0
-72 -78 95 0
72 78 95 0
72 -78 -95 0
-71 76 0
-71 -85 0
71 -76 85 0
-70 -76 85 0
-70 76 -85 0
70 76 85 0
70 -76 -85 0
-69 71 0
-69 -88 0
69 -71 88 0
-68 -71 88 0
-68 71 -88 0
68 71 88 0
68 -71 -88 0
-67 74 0
67 -74 0
66 -74 -82 0
-66 74 82 0
-66 82 0
-66 74 0
-65 -66 82 0
-65 -66 74 0
-65 -66 0
65 66 -82 0
65 66 -74 0
-65 74 82 0
64 -82 -93 0
64 -66 -93 0
64 -66 -82 0
-64 82 93 0
-64 66 93 0
-64 66 82 0
-63 -64 93 0
-63 -64 82 0
-63 -64 66 0
63 64 -93 0
63 64 -82 0
63 64 -66 0
63 -66 -82 -93 0
-63 66 82 93 0
62 -93 -98 0
62 -64 -98 0
62 -64 -93 0
-62 93 98 0
-62 64 98 0
-62 64 93 0
-61 -62 98 0
-61 -62 93 0
-61 -62 64 0
61 62 -98 0
61 62 -93 0
61 62 -64 0
61 -64 -93 -98 0
-61 64 93 98 0
60 -78 -98 0
60 -62 -78 0
60 -62 -98 0
-60 78 98 0
-60 62 78 0
-60 62 98 0
-60 78 -101 0
-60 98 -101 0
-60 62 -101 0
60 -78 101 0
60 -98 101 0
60 -62 101 0
-62 -78 -98 101 0
62 78 98 -101 0
-78 -85 102 0
-60 -85 102 0
-60 -78 102 0
78 85 -102 0
60 85 -102 0
60 78 -102 0
85 -102 -103 0
78 -102 -103 0
60 -102 -103 0
-85 102 103 0
-78 102 103 0
-60 102 103 0
-60 -78 -85 103 0
60 78 85 -103 0
-85 -88 104 0
-88 -102 104 0
-85 -102 104 0
85 88 -104 0
88 102 -104 0
85 102 -104 0
88 -104 -105 0
85 -104 -105 0
102 -104 -105 0
-88 104 105 0
-85 104 105 0
-102 104 105 0
-85 -88 -102 105 0
85 88 102 -105 0
-75 88 0
-75 104 0
75 -88 -104 0
-83 -88 -104 0
-83 88 104 0
83 -88 104 0
83 88 -104 0
61 -99 0
-61 99 0
-74 79 -101 0
74 -79 101 0
-79 101 0
74 -79 0
79 -101 0
-74 79 0
-82 89 -103 0
-79 89 -103 0
-79 -82 89 0
82 -89 103 0
79 -89 103 0
79 82 -89 0
89 -103 0
-82 89 0
-79 89 0
-79 -82 -103 0
-93 -105 106 0
-89 -105 106 0
-89 -93 106 0
93 105 -106 0
89 105 -106 0
89 93 -106 0
-105 106 0
-93 106 0
-89 106 0
-89 -93 -105 0
-83 -98 107 0
-83 -106 107 0
-98 -106 107 0
83 98 -107 0
83 106 -107 0
98 106 -107 0
-83 107 0
-98 107 0
-106 107 0
-83 -98 -106 0
-75 -78 108 0
-75 -107 108 0
-78 -107 108 0
75 78 -108 0
75 107 -108 0
78 107 -108 0
-75 108 0
-78 108 0
-107 108 0
-75 -78 -107 0
85 -109 0
108 -109 0
-85 -108 109 0
-85 108 0
85 -108 0
-88 -109 0
-88 109 0
88 -109 0
-67 -110 0
67 110 0
67 -111 0
-67 111 0
110 -112 0
-65 -112 0
65 -110 112 0
65 -110 -113 0
-65 110 -113 0
65 110 113 0
-65 -110 113 0
112 -114 0
-63 -114 0
63 -112 114 0
63 -112 -115 0
-63 112 -115 0
63 112 115 0
-63 -112 115 0
114 -116 0
-99 -116 0
99 -114 116 0
99 -114 -117 0
-99 114 -117 0
99 114 117 0
-99 -114 117 0
116 -118 0
-116 118 0
-116 -119 0
116 119 0
118 -120 0
-118 120 0
-118 -121 0
118 121 0
120 -122 0
-120 122 0
-92 -120 0
92 120 0
-97 122 0
97 -122 0
-81 -122 0
81 122 0
-59 97 0
59 -97 0
-58 -97 0
58 97 0
-57 59 0
57 -59 0
-56 -59 0
56 59 0
-55 57 0
55 -57 0
-54 -57 0
54 57 0
-53 55 0
53 -55 0
-52 -55 0
52 55 0
-49 -51 0
-48 -49 0
48 49 51 0
-46 48 51 0
-46 -48 -51 0
46 48 -51 0
46 -48 51 0
-45 49 0
-44 -45 0
44 45 -49 0
-42 44 -49 0
-42 -44 49 0
42 44 49 0
42 -44 -49 0
-41 45 0
-40 -41 0
40 41 -45 0
-38 40 -45 0
-38 -40 45 0
38 40 45 0
38 -40 -45 0
-37 41 0
-36 -37 0
36 37 -41 0
-34 36 -41 0
-34 -36 41 0
34 36 41 0
34 -36 -41 0
-33 37 0
-32 -33 0
32 33 -37 0
-30 32 -37 0
-30 -32 37 0
30 32 37 0
30 -32 -37 0
-29 33 0
-28 -29 0
28 29 -33 0
-26 28 -33 0
-26 -28 33 0
26 28 33 0
26 -28 -33 0
-25 29 0
-24 -25 0
24 25 -29 0
-22 24 -29 0
-22 -24 29 0
22 24 29 0
22 -24 -29 0
-21 40 0
-21 51 0
21 -40 -51 0
-20 -40 -51 0
-20 40 51 0
20 -40 51 0
20 40 -51 0
19 -36 -48 0
19 -21 -36 0
19 -21 -48 0
-19 36 48 0
-19 21 36 0
-19 21 48 0
19 -36 0
19 -48 0
19 -21 0
-21 -36 -48 0
18 -32 -44 0
18 -19 -32 0
18 -19 -44 0
-18 32 44 0
-18 19 32 0
-18 19 44 0
18 -32 0
18 -44 0
18 -19 0
-19 -32 -44 0
17 -28 -40 0
17 -18 -28 0
17 -18 -40 0
-17 28 40 0
-17 18 28 0
-17 18 40 0
17 -28 0
17 -40 0
17 -18 0
-18 -28 -40 0
16 -24 -36 0
16 -17 -24 0
16 -17 -36 0
-16 24 36 0
-16 17 24 0
-16 17 36 0
16 -24 0
16 -36 0
16 -17 0
-17 -24 -36 0
-15 32 0
-15 16 0
15 -16 -32 0
16 -32 0
-16 32 0
28 -73 0
15 -73 0
-15 -28 73 0
15 -28 0
-15 28 0
-24 -73 0
-24 73 0
24 -73 0
-51 -77 0
-48 -77 0
48 51 77 0
48 51 -84 0
-48 -51 -84 0
48 -51 84 0
-48 51 84 0
77 -87 0
-44 -87 0
44 -77 87 0
44 -50 -77 0
-44 -50 77 0
44 50 77 0
-44 50 -77 0
-47 87 0
-20 -47 0
20 47 -87 0
20 -43 -87 0
-20 -43 87 0
20 43 87 0
-20 43 -87 0
-39 47 0
39 -47 0
-35 -47 0
35 47 0
-31 39 0
31 -39 0
-27 -39 0
27 39 0
-23 31 0
23 -31 0
-14 -31 0
14 31 0
-13 23 0
13 -23 0
-12 -23 0
12 23 0
-11 13 0
11 -13 0
-10 -13 0
10 13 0
-9 11 0
9 -11 0
-8 -11 0
8 11 0
-7 9 0
7 -9 0
-6 -9 0
6 9 0
-5 7 0
5 -7 0
-4 -7 0
4 7 0
-3 67 0
-3 51 0
3 -51 -67 0
51 -67 0
-51 67 0
2 -48 -65 0
2 -3 -65 0
2 -3 -48 0
-2 48 65 0
-2 3 65 0
-2 3 48 0
-2 65 0
-2 48 0
-2 3 0
3 48 65 0
1 -44 -63 0
1 -2 -63 0
1 -2 -44 0
-1 44 63 0
-1 2 63 0
-1 2 44 0
1 -63 0
1 -44 0
1 -2 0
-2 -44 -63 0
-20 -99 0
-1 -99 0
-1 -20 0
1 20 99 0
